data/processed_heuristic-threshold/instances/1/7/ds_531_courier_3073/pairwise.tsp
NAME: ds_531_courier_3073
TYPE: TSP
COMMENT: nil
DIMENSION: 8
EDGE_WEIGHT_TYPE: EXPLICIT
EDGE_WEIGHT_FORMAT: FULL_MATRIX
EDGE_WEIGHT_SECTION
9999 928 1373 1412 1563 1025 1033 1595 
928 9999 499 526 645 101 147 808 
1373 499 9999 50 244 444 499 340 
1412 526 50 9999 193 462 512 347 
1563 645 244 193 9999 562 589 440 
1025 101 444 462 562 9999 78 770 
1033 147 499 512 589 78 9999 832 
1595 808 340 347 440 770 832 9999 
