data/processed_heuristic-threshold/instances/1/7/ds_531_courier_3073/pairwise.sol
8
0 7 2 3 4 6 5 1 
